1760.05
0 61 1 43 63 16 50 67 0
0 42 62 70 8 59 31 32 0
0 56 49 40 17 52 68 75 0
0 24 9 72 65 14 19 69 34 0
0 27 29 48 30 73 23 18 38 6 0
0 33 64 2 74 45 35 26 0
0 60 71 5 47 28 4 58 0
0 3 44 55 66 46 13 36 51 0
0 41 22 21 37 57 53 39 12 0
0 20 15 54 25 10 11 7 0
